c preprocessed version of dimacs_mulsol.i.2, 74 vertices, 1130 edges
p td 74 1130
0 1
0 29
0 31
0 33
0 35
0 37
0 39
0 38
0 36
0 34
0 32
0 30
0 28
0 41
40 0
2 1
21 1
1 28
1 30
1 32
1 34
1 36
1 38
1 39
1 37
1 35
1 33
1 31
1 29
40 1
42 1
2 3
2 18
2 21
2 22
2 23
2 24
2 25
2 26
2 27
2 29
2 31
2 33
2 35
2 37
2 39
2 38
2 36
2 34
2 32
2 30
2 28
2 20
2 66
2 19
2 44
2 46
2 51
2 63
2 61
2 65
2 64
2 62
2 59
2 57
2 52
2 60
2 55
2 58
2 56
2 53
2 54
2 49
2 47
2 48
2 43
2 45
4 3
5 3
6 3
7 3
8 3
9 3
10 3
11 3
12 3
13 3
14 3
15 3
16 3
17 3
20 3
47 3
52 3
59 3
62 3
61 3
63 3
51 3
46 3
44 3
19 3
50 3
42 3
4 5
4 6
4 7
4 8
4 9
4 10
4 11
4 12
4 13
4 14
4 15
4 16
4 17
4 18
4 43
4 45
4 66
4 20
4 48
4 47
4 49
4 54
4 53
4 56
4 58
4 55
4 60
4 52
4 57
4 59
4 62
4 64
4 65
4 61
4 63
4 51
4 46
4 44
4 19
50 4
42 4
5 6
5 7
5 8
5 9
5 10
5 11
5 12
5 13
5 14
5 15
5 16
5 17
5 18
5 43
5 45
5 66
5 20
5 48
5 47
5 49
5 54
5 53
5 56
5 58
5 55
5 60
5 52
5 57
5 59
5 62
5 64
5 65
5 61
5 63
5 51
5 46
5 44
5 19
50 5
42 5
6 7
6 8
6 9
6 10
6 11
6 12
6 13
6 14
6 15
6 16
6 17
6 18
6 43
6 45
6 66
6 20
6 48
6 47
6 49
6 54
6 53
6 56
6 58
6 55
6 60
6 52
6 57
6 59
6 62
6 64
6 65
6 61
6 63
6 51
6 46
6 44
6 19
50 6
42 6
7 8
7 9
7 10
7 11
7 12
7 13
7 14
7 15
7 16
7 17
7 18
7 43
7 45
7 66
7 20
7 48
7 47
7 49
7 54
7 53
7 56
7 58
7 55
7 60
7 52
7 57
7 59
7 62
7 64
7 65
7 61
7 63
7 51
7 46
7 44
7 19
7 29
50 7
42 7
8 9
8 10
8 11
8 12
8 13
8 14
8 15
8 16
8 17
8 18
8 43
8 45
8 66
8 20
8 48
8 47
8 49
8 54
8 53
8 56
8 58
8 55
8 60
8 52
8 57
8 59
8 62
8 64
8 65
8 61
8 63
8 51
8 46
8 44
8 19
8 31
8 29
50 8
42 8
9 10
9 11
9 12
9 13
9 14
9 15
9 16
9 17
9 18
9 43
9 45
9 66
9 20
9 48
9 47
9 49
9 54
9 53
9 56
9 58
9 55
9 60
9 52
9 57
9 59
9 62
9 64
9 65
9 61
9 63
9 51
9 46
9 44
9 19
9 33
9 31
9 29
50 9
42 9
10 11
10 12
10 13
10 14
10 15
10 16
10 17
10 18
10 43
10 45
10 66
10 20
10 48
10 47
10 49
10 54
10 53
10 56
10 58
10 55
10 60
10 52
10 57
10 59
10 62
10 64
10 65
10 61
10 63
10 51
10 46
10 44
10 19
10 35
10 33
10 31
10 29
50 10
42 10
11 12
11 13
11 14
11 15
11 16
11 17
11 18
11 43
11 45
11 66
11 20
11 48
11 47
11 49
11 54
11 53
11 56
11 58
11 55
11 60
11 52
11 57
11 59
11 62
11 64
11 65
11 61
11 63
11 51
11 46
11 44
11 19
11 37
11 35
11 33
11 31
11 29
50 11
42 11
12 13
12 14
12 15
12 16
12 17
12 18
12 43
12 45
12 66
12 20
12 48
12 47
12 49
12 54
12 53
12 56
12 58
12 55
12 60
12 52
12 57
12 59
12 62
12 64
12 65
12 61
12 63
12 51
12 46
12 44
12 19
50 12
42 12
13 14
13 15
13 16
13 17
13 18
13 43
13 45
13 66
13 20
13 48
13 47
13 49
13 54
13 53
13 56
13 58
13 55
13 60
13 52
13 57
13 59
13 62
13 64
13 65
13 61
13 63
13 51
13 46
13 44
13 19
50 13
42 13
14 15
14 16
14 17
14 18
14 43
14 45
14 66
14 20
14 48
14 47
14 49
14 54
14 53
14 56
14 58
14 55
14 60
14 52
14 57
14 59
14 62
14 64
14 65
14 61
14 63
14 51
14 46
14 44
14 19
50 14
42 14
15 16
15 17
15 18
15 43
15 45
15 66
15 20
15 48
15 47
15 49
15 54
15 53
15 56
15 58
15 55
15 60
15 52
15 57
15 59
15 62
15 64
15 65
15 61
15 63
15 51
15 46
15 44
15 19
50 15
42 15
16 17
16 18
16 43
16 45
16 66
16 20
16 48
16 47
16 49
16 54
16 53
16 56
16 58
16 55
16 60
16 52
16 57
16 59
16 62
16 64
16 65
16 61
16 63
16 51
16 46
16 44
16 19
50 16
42 16
17 18
17 43
17 45
17 66
17 20
17 48
17 47
17 49
17 54
17 53
17 56
17 58
17 55
17 60
17 52
17 57
17 59
17 62
17 64
17 65
17 61
17 63
17 51
17 46
17 44
17 19
50 17
42 17
18 19
18 44
18 46
18 51
18 63
18 61
18 62
18 59
18 52
18 47
18 20
50 18
42 18
20 19
43 19
45 19
47 19
52 19
59 19
62 19
61 19
63 19
51 19
46 19
44 19
50 19
42 19
21 20
43 20
45 20
20 44
20 46
20 51
20 63
20 61
20 65
20 64
20 62
20 59
20 57
20 52
20 60
20 55
20 58
20 56
20 53
20 54
20 49
20 47
20 48
50 20
42 20
21 22
21 23
21 24
21 25
21 26
21 27
21 29
21 31
21 33
21 35
21 37
21 39
21 38
21 36
21 34
21 32
21 30
21 28
22 23
22 24
22 25
22 26
22 27
22 29
22 31
22 33
22 35
22 37
22 39
22 38
22 36
22 34
22 32
22 30
22 28
23 24
23 25
23 26
23 27
23 31
23 33
23 35
23 37
23 39
23 38
23 36
23 34
23 32
23 30
23 28
24 25
24 26
24 27
24 38
24 36
24 34
24 32
24 30
24 28
25 26
25 27
25 28
26 27
29 28
31 28
33 28
35 28
37 28
39 28
38 28
36 28
34 28
32 28
30 28
40 28
42 28
29 30
29 32
29 34
29 36
29 38
29 39
29 37
29 35
29 33
29 31
40 29
42 29
31 30
33 30
35 30
37 30
39 30
38 30
36 30
34 30
32 30
40 30
42 30
31 32
31 34
31 36
31 38
31 39
31 37
31 35
31 33
40 31
42 31
33 32
35 32
37 32
39 32
38 32
36 32
34 32
40 32
42 32
33 34
33 36
33 38
33 39
33 37
33 35
40 33
42 33
35 34
37 34
39 34
38 34
36 34
40 34
42 34
35 36
35 38
35 39
35 37
40 35
42 35
37 36
39 36
38 36
40 36
42 36
37 38
37 39
40 37
42 37
39 38
40 38
42 38
40 39
42 39
40 41
42 40
42 43
42 44
42 45
42 46
42 47
42 48
42 49
42 50
42 51
42 52
42 53
42 54
42 55
42 56
42 57
42 58
42 59
42 60
42 61
42 62
42 63
42 64
42 65
42 66
43 44
43 46
43 51
43 63
43 61
43 62
43 59
43 52
43 47
50 43
45 44
47 44
52 44
59 44
62 44
65 44
61 44
63 44
51 44
46 44
50 44
45 46
45 51
45 63
45 61
45 62
45 59
45 52
45 47
50 45
47 46
52 46
59 46
62 46
65 46
61 46
63 46
51 46
50 46
48 47
47 51
47 63
47 61
47 65
47 64
47 62
47 59
47 57
47 52
47 60
47 55
47 58
47 56
47 53
47 54
47 49
50 47
48 49
50 48
50 49
50 51
50 52
50 53
50 54
50 55
50 56
50 57
50 58
50 59
50 60
50 61
50 62
50 63
50 64
50 65
50 66
52 51
59 51
61 51
62 51
64 51
65 51
63 51
53 52
56 52
58 52
55 52
60 52
52 63
52 61
52 65
52 64
52 62
52 59
52 57
54 53
53 60
53 55
53 58
53 56
54 55
54 58
54 56
56 55
58 55
55 64
55 62
55 59
55 57
55 60
56 57
56 60
56 58
58 57
60 57
57 62
57 59
58 59
58 60
60 59
59 63
59 61
59 65
59 64
59 62
60 61
60 65
60 64
60 62
62 61
64 61
65 61
61 63
62 63
62 65
62 64
64 63
65 63
64 65
67 73
67 68
67 71
67 72
67 69
67 0
67 1
67 28
67 29
67 30
67 31
67 32
67 33
67 34
67 35
67 36
67 37
67 38
67 39
67 40
67 41
67 70
67 42
68 73
68 69
68 0
68 1
68 29
68 31
68 33
68 35
68 37
68 39
68 38
68 36
68 34
68 32
68 30
68 28
68 41
68 70
68 40
68 72
68 71
69 73
69 0
69 1
69 29
69 31
69 33
69 35
69 37
69 39
69 38
69 36
69 34
69 32
69 30
69 28
69 41
69 70
69 40
69 71
69 72
70 73
70 0
70 40
70 41
70 71
70 72
71 73
71 72
71 0
71 1
71 28
71 29
71 30
71 31
71 32
71 33
71 34
71 35
71 36
71 37
71 38
71 39
71 41
71 40
72 73
72 0
72 41
72 1
72 29
72 31
72 33
72 35
72 37
72 39
72 38
72 36
72 34
72 32
72 30
72 28
72 40
73 0
73 1
73 2
73 3
73 18
73 19
73 20
73 21
73 22
73 23
73 24
73 25
73 26
73 27
73 28
73 29
73 30
73 31
73 32
73 33
73 34
73 35
73 36
73 37
73 38
73 39
73 40
73 41
73 42
73 43
73 44
73 45
73 46
73 47
73 48
73 49
73 50
73 51
73 52
73 53
73 54
73 55
73 56
73 57
73 58
73 59
73 60
73 61
73 62
73 63
73 64
73 65
73 66
